33D32945 STP File, STP Format Version 1.0

SECTION Comments
Name "nsimp_5"
Creator "Warren Smith"
Problem "Euclidean Steiner Tree Problem"
Remark "Converted automatically"
END

SECTION Graph
Nodes 6
END

SECTION Coordinates
DDDDDD 1 1.00000000000000 0.00000000000000 0.00000000000000 0.00000000000000 0.00000000000000 0.00000000000000 
DDDDDD 2 0.00000000000000 1.00000000000000 0.00000000000000 0.00000000000000 0.00000000000000 0.00000000000000 
DDDDDD 3 0.00000000000000 0.00000000000000 1.00000000000000 0.00000000000000 0.00000000000000 0.00000000000000 
DDDDDD 4 0.00000000000000 0.00000000000000 0.00000000000000 1.00000000000000 0.00000000000000 0.00000000000000 
DDDDDD 5 0.00000000000000 0.00000000000000 0.00000000000000 0.00000000000000 1.00000000000000 0.00000000000000 
DDDDDD 6 0.00000000000000 0.00000000000000 0.00000000000000 0.00000000000000 0.00000000000000 1.00000000000000 
END

EOF
